letting n =  10
letting blocks =  [[1, 1], [1, 3], [1, 7], [1, 8], [2, 8], [3, 1], [3, 3], [3, 4], [3, 7], [4, 5], [5, 6], [5, 9], [6, 4], [6, 10], [7, 6], [7, 7], [8, 4], [8, 6], [9, 6], [9, 10], [10, 7], [10, 9]]
